p cnf 7230 17
-4238 -4540 -5188 -5204 -5234 5514 0
-4156 -4792 -5237 5519 0
4156 -5520 0
4238 -5514 0
-5245 -5263 -5517 0
-4786 -5269 5515 0
5245 -5518 0
4786 -5516 0
4792 -5520 0
-5519 5520 0
5517 5518 0
-5515 5516 0
5263 -5518 0
5269 -5516 0
5237 -5520 0
-5513 5514 0
5513 -5514 0
